\ This file has been generated by DOcplex
\ ENCODING=ISO-8859-1
\Problem name: random_problem.lp

Minimize
 obj: - 136 x0 - 68 x1 - 34 x2 + 400 x3 + 200 x4 + 100 x5 - 104 x6 - 52 x7
      - 26 x8 + [ 8640 x0^2 + 8640 x0*x1 + 4320 x0*x2 + 2112 x0*x3 + 1056 x0*x4
      + 528 x0*x5 + 3392 x0*x6 + 1696 x0*x7 + 848 x0*x8 + 2160 x1^2 + 2160 x1*x2
      + 1056 x1*x3 + 528 x1*x4 + 264 x1*x5 + 1696 x1*x6 + 848 x1*x7 + 424 x1*x8
      + 540 x2^2 + 528 x2*x3 + 264 x2*x4 + 132 x2*x5 + 848 x2*x6 + 424 x2*x7
      + 212 x2*x8 + 3232 x3^2 + 3232 x3*x4 + 1616 x3*x5 + 192 x3*x6 + 96 x3*x7
      + 48 x3*x8 + 808 x4^2 + 808 x4*x5 + 96 x4*x6 + 48 x4*x7 + 24 x4*x8
      + 202 x5^2 + 48 x5*x6 + 24 x5*x7 + 12 x5*x8 + 1504 x6^2 + 1504 x6*x7
      + 752 x6*x8 + 376 x7^2 + 376 x7*x8 + 94 x8^2 ]/2
Subject To
 c0: 4 x0 + 2 x1 + x2 + 4 x3 + 2 x4 + x5 + 4 x6 + 2 x7 + x8 = 7

Bounds
 0 <= x0 <= 1
 0 <= x1 <= 1
 0 <= x2 <= 1
 0 <= x3 <= 1
 0 <= x4 <= 1
 0 <= x5 <= 1
 0 <= x6 <= 1
 0 <= x7 <= 1
 0 <= x8 <= 1

Binaries
 x0 x1 x2 x3 x4 x5 x6 x7 x8
End
